# Objective value = 5.5336799999999630e+03
I_0_0 1230
I_0_1 1.3530000000000171e+03
I_0_2 1.5819999999999993e+03
I_0_3 1.7089999999999934e+03
I_0_4 1.5159999999999918e+03
I_0_5 1.4470000000000198e+03
I_0_6 1.9219999999999709e+03
I_1_0 126
I_1_1 63
I_1_2 126
I_1_3 63
I_1_4 0
I_1_5 126
I_1_6 6.2999999999999957e+01
I_2_0 61
I_2_1 61
I_2_2 0
I_2_3 61
I_2_4 0
I_2_5 61.0000000000048
I_2_6 -4.8174797484534793e-12
I_3_0 22
I_3_1 2.1999999999999517e+01
I_3_2 1.0999999999999519e+01
I_3_3 9.6295194040862953e-13
I_3_4 22
I_3_5 11
I_3_6 0
I_4_0 110
I_4_1 1.1000000000000048e+02
I_4_2 5.4999999999998288e+01
I_4_3 -1.7130325452873770e-12
I_4_4 1.0999999999999702e+02
I_4_5 5.5000000000001457e+01
I_4_6 1.4808154632220159e-12
I_5_0 14
I_5_1 14
I_5_2 0
I_5_3 14
I_5_4 1.4000000000000005e+01
I_5_5 14
I_5_6 0
I_6_0 99
I_6_1 99
I_6_2 0
I_6_3 9.8999999999999986e+01
I_6_4 2.2204460492503131e-16
I_6_5 99
I_6_6 0
I_7_0 78
I_7_1 39
I_7_2 78
I_7_3 39
I_7_4 7.7999999999994373e+01
I_7_5 3.8999999999994365e+01
I_7_6 9.98984228672839e-12
I_8_0 21
I_8_1 7.5878024566669589e-14
I_8_2 2.0999999999999847e+01
I_8_3 2.2000734567484415e-12
I_8_4 2.0999999999996142e+01
I_8_5 2.1000000000002316e+01
I_8_6 2.1532775562604911e-12
I_9_0 64
I_9_1 6.3999999999996675e+01
I_9_2 3.1999999999996113e+01
I_9_3 -1.6185386364497845e-12
I_9_4 6.3999999999996014e+01
I_9_5 3.1999999999996014e+01
I_9_6 3.5811353882309049e-12
I_10_0 160
I_10_1 1.5999999999998641e+02
I_10_2 8.0000000000006978e+01
I_10_3 6.9888539400153604e-12
I_10_4 1.6000000000002382e+02
I_10_5 7.9999999999980076e+01
I_10_6 1.7912948901965819e-11
q_1_0_0 0
q_1_0_1 126
q_1_0_2 0
q_1_0_3 0
q_1_0_4 189
q_1_0_5 0
q_1_1_0 0
q_1_1_1 0
q_1_1_2 0
q_1_1_3 0
q_1_1_4 0
q_1_1_5 0
q_2_0_0 61
q_2_0_1 0
q_2_0_2 122
q_2_0_3 0
q_2_0_4 0
q_2_0_5 -9.6178122219893641e-12
q_2_1_0 0
q_2_1_1 0
q_2_1_2 0
q_2_1_3 0
q_2_1_4 1.2200000000000482e+02
q_2_1_5 0
q_3_0_0 1.0999999999999517e+01
q_3_0_1 0
q_3_0_2 1.4440115769787099e-12
q_3_0_3 3.2999999999999041e+01
q_3_0_4 0
q_3_0_5 0
q_3_1_0 0
q_3_1_1 -6.9388939039072284e-18
q_3_1_2 0
q_3_1_3 0
q_3_1_4 0
q_3_1_5 0
q_4_0_0 5.5000000000000490e+01
q_4_0_1 -9.5901064867121022e-13
q_4_0_2 0
q_4_0_3 165
q_4_0_4 4.4424463896660470e-12
q_4_0_5 0
q_4_1_0 0
q_4_1_1 -1.2407574967454593e-12
q_4_1_2 0
q_4_1_3 0
q_4_1_4 0
q_4_1_5 0
q_5_0_0 14
q_5_0_1 0
q_5_0_2 28
q_5_0_3 1.4000000000000005e+01
q_5_0_4 1.1719514247943152e-12
q_5_0_5 0
q_5_1_0 0
q_5_1_1 0
q_5_1_2 0
q_5_1_3 0
q_5_1_4 1.3999999999998822e+01
q_5_1_5 0
q_6_0_0 99
q_6_0_1 0
q_6_0_2 198
q_6_0_3 0
q_6_0_4 0
q_6_0_5 0
q_6_1_0 0
q_6_1_1 0
q_6_1_2 0
q_6_1_3 2.2204460492503131e-16
q_6_1_4 1.9799999999999997e+02
q_6_1_5 1.5543122344752192e-14
q_7_0_0 0
q_7_0_1 78
q_7_0_2 0
q_7_0_3 7.8000000000011283e+01
q_7_0_4 0
q_7_0_5 1.3103296225835948e-11
q_7_1_0 0
q_7_1_1 0
q_7_1_2 0
q_7_1_3 -1.6910917111090384e-11
q_7_1_4 0
q_7_1_5 0
q_8_0_0 7.5878024566669589e-14
q_8_0_1 4.1999999999999773e+01
q_8_0_2 2.0493468033677686e-12
q_8_0_3 4.2000000000000014e+01
q_8_0_4 0
q_8_0_5 -1.6142642778049776e-13
q_8_1_0 0
q_8_1_1 0
q_8_1_2 3.0351025512298513e-13
q_8_1_3 -6.0702554094405059e-12
q_8_1_4 2.1000000000006168e+01
q_8_1_5 0
q_9_0_0 3.1999999999996671e+01
q_9_0_1 -5.5808135890345056e-13
q_9_0_2 0
q_9_0_3 9.6038732522174541e-12
q_9_0_4 -8.8817841970012523e-16
q_9_0_5 7.5681145353358939e-12
q_9_1_0 0
q_9_1_1 6.1062266354383610e-16
q_9_1_2 2.2693444345911473e-12
q_9_1_3 9.5999999999988034e+01
q_9_1_4 0
q_9_1_5 0
q_10_0_0 7.9999999999986414e+01
q_10_0_1 1.9318768806897424e-11
q_10_0_2 0
q_10_0_3 0
q_10_0_4 -4.3716141817640164e-11
q_10_0_5 3.7840572676679465e-11
q_10_1_0 0
q_10_1_1 1.2407852523210749e-12
q_10_1_2 0
q_10_1_3 2.4000000000001680e+02
q_10_1_4 0
q_10_1_5 -1.5432100042289676e-14
y_0_0_0 1
y_0_0_1 1
y_0_0_2 1
y_0_0_3 1
y_0_0_4 1
y_0_0_5 1.1199331392819367e-13
y_0_1_0 0
y_0_1_1 0
y_0_1_2 7.2264785301590084e-15
y_0_1_3 1
y_0_1_4 1
y_0_1_5 0
y_1_0_0 0
y_1_0_1 1
y_1_0_2 0
y_1_0_3 0
y_1_0_4 1
y_1_0_5 0
y_1_1_0 0
y_1_1_1 0
y_1_1_2 0
y_1_1_3 0
y_1_1_4 0
y_1_1_5 0
y_2_0_0 1
y_2_0_1 0
y_2_0_2 1
y_2_0_3 0
y_2_0_4 0
y_2_0_5 -7.8834526409748891e-14
y_2_1_0 0
y_2_1_1 0
y_2_1_2 0
y_2_1_3 0
y_2_1_4 1.0000000000000395e+00
y_2_1_5 0
y_3_0_0 9.9999999999995615e-01
y_3_0_1 0
y_3_0_2 4.3758399681514959e-14
y_3_0_3 1
y_3_0_4 0
y_3_0_5 0
y_3_1_0 0
y_3_1_1 0
y_3_1_2 0
y_3_1_3 0
y_3_1_4 0
y_3_1_5 0
y_4_0_0 1.0000000000000089e+00
y_4_0_1 -8.7191538711284267e-15
y_4_0_2 0
y_4_0_3 1
y_4_0_4 2.6923917513127559e-14
y_4_0_5 0
y_4_1_0 0
y_4_1_1 0
y_4_1_2 0
y_4_1_3 -3.4051128521703841e-14
y_4_1_4 0
y_4_1_5 0
y_5_0_0 1
y_5_0_1 0
y_5_0_2 1
y_5_0_3 1.0000000000000007e+00
y_5_0_4 4.1848469134464494e-14
y_5_0_5 0
y_5_1_0 0
y_5_1_1 0
y_5_1_2 0
y_5_1_3 0
y_5_1_4 9.9999999999995814e-01
y_5_1_5 0
y_6_0_0 1
y_6_0_1 0
y_6_0_2 1
y_6_0_3 0
y_6_0_4 0
y_6_0_5 0
y_6_1_0 0
y_6_1_1 0
y_6_1_2 0
y_6_1_3 0
y_6_1_4 1
y_6_1_5 0
y_7_0_0 0
y_7_0_1 1
y_7_0_2 0
y_7_0_3 1.0000000000000002e+00
y_7_0_4 0
y_7_0_5 1.1199331392819367e-13
y_7_1_0 0
y_7_1_1 0
y_7_1_2 0
y_7_1_3 -1.4453716001838757e-13
y_7_1_4 0
y_7_1_5 0
y_8_0_0 3.6132392650795042e-15
y_8_0_1 9.9999999999999634e-01
y_8_0_2 9.7539164245485921e-14
y_8_0_3 1.0000000000000002e+00
y_8_0_4 0
y_8_0_5 -3.8441472227646045e-15
y_8_1_0 0
y_8_1_1 0
y_8_1_2 7.2264785301590084e-15
y_8_1_3 -1.4453716001838757e-13
y_8_1_4 9.9999999999988809e-01
y_8_1_5 1.1583789483182727e-13
y_9_0_0 0.999999999999896
y_9_0_1 -8.7200212328664151e-15
y_9_0_2 4.3758399681514959e-14
y_9_0_3 0
y_9_0_4 0
y_9_0_5 7.8834526409748891e-14
y_9_1_0 0
y_9_1_1 0
y_9_1_2 0
y_9_1_3 9.9999999999987532e-01
y_9_1_4 0
y_9_1_5 0
y_10_0_0 9.9999999999983025e-01
y_10_0_1 1.2074109073667572e-13
y_10_0_2 4.3609213462580954e-14
y_10_0_3 0
y_10_0_4 -1.8215984276537256e-13
y_10_0_5 1.5766905281949778e-13
y_10_1_0 0
y_10_1_1 0
y_10_1_2 0
y_10_1_3 1.0000000000000702e+00
y_10_1_4 0
y_10_1_5 -4.5675702803338325e-14
x_0_1_0_0 0
x_0_1_0_1 9.9999999999987044e-01
x_0_1_0_2 0
x_0_1_0_3 0
x_0_1_0_4 2.0000000000001403e+00
x_0_1_0_5 0
x_0_1_1_0 0
x_0_1_1_1 0
x_0_1_1_2 0
x_0_1_1_3 0
x_0_1_1_4 0
x_0_1_1_5 0
x_0_2_0_0 -1.6745719394473113e-14
x_0_2_0_1 0
x_0_2_0_2 9.9999999999985856e-01
x_0_2_0_3 0
x_0_2_0_4 0
x_0_2_0_5 0
x_0_2_1_0 0
x_0_2_1_1 0
x_0_2_1_2 0
x_0_2_1_3 0
x_0_2_1_4 1.1199374760906267e-13
x_0_2_1_5 0
x_0_3_0_0 0
x_0_3_0_1 0
x_0_3_0_2 0
x_0_3_0_3 0
x_0_3_0_4 0
x_0_3_0_5 0
x_0_3_1_0 0
x_0_3_1_1 0
x_0_3_1_2 0
x_0_3_1_3 0
x_0_3_1_4 0
x_0_3_1_5 0
x_0_4_0_0 1.6611365061258709e-13
x_0_4_0_1 0
x_0_4_0_2 0
x_0_4_0_3 1
x_0_4_0_4 0
x_0_4_0_5 0
x_0_4_1_0 0
x_0_4_1_1 0
x_0_4_1_2 0
x_0_4_1_3 0
x_0_4_1_4 0
x_0_4_1_5 0
x_0_5_0_0 1.0000000000000542e+00
x_0_5_0_1 0
x_0_5_0_2 1.0000000000000535e+00
x_0_5_0_3 0
x_0_5_0_4 0
x_0_5_0_5 0
x_0_5_1_0 0
x_0_5_1_1 -1.7347234759768071e-18
x_0_5_1_2 0
x_0_5_1_3 0
x_0_5_1_4 9.9999999999991884e-01
x_0_5_1_5 0
x_0_6_0_0 0
x_0_6_0_1 0
x_0_6_0_2 0
x_0_6_0_3 0
x_0_6_0_4 0
x_0_6_0_5 0
x_0_6_1_0 0
x_0_6_1_1 0
x_0_6_1_2 0
x_0_6_1_3 0
x_0_6_1_4 4.1848469134464494e-14
x_0_6_1_5 0
x_0_7_0_0 0
x_0_7_0_1 -5.1065922324067259e-15
x_0_7_0_2 0
x_0_7_0_3 -1.5612511283791264e-17
x_0_7_0_4 0
x_0_7_0_5 -3.8441472227646045e-15
x_0_7_1_0 0
x_0_7_1_1 0
x_0_7_1_2 0
x_0_7_1_3 -5.97993876638725e-14
x_0_7_1_4 0
x_0_7_1_5 0
x_0_8_0_0 0
x_0_8_0_1 9.9999999999999634e-01
x_0_8_0_2 9.7538730564616927e-14
x_0_8_0_3 1.0000000000000002e+00
x_0_8_0_4 0
x_0_8_0_5 -3.8441472227646045e-15
x_0_8_1_0 0
x_0_8_1_1 0
x_0_8_1_2 1.4452957060318017e-14
x_0_8_1_3 -1.4453716001838757e-13
x_0_8_1_4 9.9999999999986844e-01
x_0_8_1_5 2.3167578966365454e-13
x_0_9_0_0 0
x_0_9_0_1 0
x_0_9_0_2 0
x_0_9_0_3 -2.4980018054066022e-16
x_0_9_0_4 0
x_0_9_0_5 0
x_0_9_1_0 0
x_0_9_1_1 0
x_0_9_1_2 0
x_0_9_1_3 9.9999999999987532e-01
x_0_9_1_4 0
x_0_9_1_5 -1.1199027816211071e-13
x_0_10_0_0 9.9999999999976474e-01
x_0_10_0_1 1.38222766565832e-13
x_0_10_0_2 9.6739456723060613e-14
x_0_10_0_3 0
x_0_10_0_4 -1.4029055694919634e-13
x_0_10_0_5 0
x_0_10_1_0 0
x_0_10_1_1 0
x_0_10_1_2 0
x_0_10_1_3 1.0000000000002989e+00
x_0_10_1_4 0
x_0_10_1_5 -1.1968551150154383e-13
x_1_2_0_0 0
x_1_2_0_1 0
x_1_2_0_2 0
x_1_2_0_3 0
x_1_2_0_4 0
x_1_2_0_5 0
x_1_2_1_0 0
x_1_2_1_1 0
x_1_2_1_2 0
x_1_2_1_3 0
x_1_2_1_4 0
x_1_2_1_5 0
x_1_3_0_0 0
x_1_3_0_1 0
x_1_3_0_2 0
x_1_3_0_3 0
x_1_3_0_4 0
x_1_3_0_5 0
x_1_3_1_0 0
x_1_3_1_1 0
x_1_3_1_2 0
x_1_3_1_3 0
x_1_3_1_4 0
x_1_3_1_5 0
x_1_4_0_0 0
x_1_4_0_1 0
x_1_4_0_2 0
x_1_4_0_3 0
x_1_4_0_4 0
x_1_4_0_5 0
x_1_4_1_0 0
x_1_4_1_1 0
x_1_4_1_2 0
x_1_4_1_3 0
x_1_4_1_4 0
x_1_4_1_5 0
x_1_5_0_0 0
x_1_5_0_1 0
x_1_5_0_2 0
x_1_5_0_3 0
x_1_5_0_4 0
x_1_5_0_5 0
x_1_5_1_0 0
x_1_5_1_1 0
x_1_5_1_2 0
x_1_5_1_3 0
x_1_5_1_4 0
x_1_5_1_5 0
x_1_6_0_0 0
x_1_6_0_1 0
x_1_6_0_2 0
x_1_6_0_3 0
x_1_6_0_4 0
x_1_6_0_5 0
x_1_6_1_0 0
x_1_6_1_1 0
x_1_6_1_2 0
x_1_6_1_3 0
x_1_6_1_4 0
x_1_6_1_5 0
x_1_7_0_0 0
x_1_7_0_1 1
x_1_7_0_2 0
x_1_7_0_3 0
x_1_7_0_4 0
x_1_7_0_5 0
x_1_7_1_0 0
x_1_7_1_1 0
x_1_7_1_2 0
x_1_7_1_3 0
x_1_7_1_4 0
x_1_7_1_5 0
x_1_8_0_0 0
x_1_8_0_1 0
x_1_8_0_2 0
x_1_8_0_3 0
x_1_8_0_4 0
x_1_8_0_5 0
x_1_8_1_0 0
x_1_8_1_1 0
x_1_8_1_2 0
x_1_8_1_3 0
x_1_8_1_4 0
x_1_8_1_5 0
x_1_9_0_0 0
x_1_9_0_1 0
x_1_9_0_2 0
x_1_9_0_3 0
x_1_9_0_4 0
x_1_9_0_5 0
x_1_9_1_0 0
x_1_9_1_1 0
x_1_9_1_2 0
x_1_9_1_3 0
x_1_9_1_4 0
x_1_9_1_5 0
x_1_10_0_0 0
x_1_10_0_1 1.2950231165209658e-13
x_1_10_0_2 0
x_1_10_0_3 0
x_1_10_0_4 -1.4029055694919634e-13
x_1_10_0_5 0
x_1_10_1_0 0
x_1_10_1_1 0
x_1_10_1_2 0
x_1_10_1_3 0
x_1_10_1_4 0
x_1_10_1_5 0
x_2_3_0_0 0
x_2_3_0_1 0
x_2_3_0_2 0
x_2_3_0_3 0
x_2_3_0_4 0
x_2_3_0_5 0
x_2_3_1_0 0
x_2_3_1_1 0
x_2_3_1_2 0
x_2_3_1_3 0
x_2_3_1_4 0
x_2_3_1_5 0
x_2_4_0_0 0
x_2_4_0_1 0
x_2_4_0_2 0
x_2_4_0_3 0
x_2_4_0_4 0
x_2_4_0_5 0
x_2_4_1_0 0
x_2_4_1_1 0
x_2_4_1_2 0
x_2_4_1_3 0
x_2_4_1_4 0
x_2_4_1_5 0
x_2_5_0_0 9.9999999999995615e-01
x_2_5_0_1 0
x_2_5_0_2 -9.5201624361607173e-15
x_2_5_0_3 0
x_2_5_0_4 0
x_2_5_0_5 0
x_2_5_1_0 0
x_2_5_1_1 0
x_2_5_1_2 0
x_2_5_1_3 0
x_2_5_1_4 0
x_2_5_1_5 0
x_2_6_0_0 1
x_2_6_0_1 0
x_2_6_0_2 1.0000000000000002e+00
x_2_6_0_3 1.7347234759768071e-18
x_2_6_0_4 0
x_2_6_0_5 -1.5766905281949778e-13
x_2_6_1_0 0
x_2_6_1_1 0
x_2_6_1_2 0
x_2_6_1_3 0
x_2_6_1_4 1
x_2_6_1_5 0
x_2_7_0_0 0
x_2_7_0_1 0
x_2_7_0_2 0
x_2_7_0_3 -1.7347234759768071e-18
x_2_7_0_4 0
x_2_7_0_5 0
x_2_7_1_0 0
x_2_7_1_1 0
x_2_7_1_2 0
x_2_7_1_3 0
x_2_7_1_4 0
x_2_7_1_5 0
x_2_8_0_0 7.2264785301590084e-15
x_2_8_0_1 0
x_2_8_0_2 9.7539597926354915e-14
x_2_8_0_3 0
x_2_8_0_4 0
x_2_8_0_5 0
x_2_8_1_0 0
x_2_8_1_1 0
x_2_8_1_2 0
x_2_8_1_3 0
x_2_8_1_4 9.9999999999990763e-01
x_2_8_1_5 0
x_2_9_0_0 0
x_2_9_0_1 0
x_2_9_0_2 0
x_2_9_0_3 0
x_2_9_0_4 0
x_2_9_0_5 0
x_2_9_1_0 0
x_2_9_1_1 0
x_2_9_1_2 0
x_2_9_1_3 0
x_2_9_1_4 0
x_2_9_1_5 0
x_2_10_0_0 0
x_2_10_0_1 0
x_2_10_0_2 0
x_2_10_0_3 0
x_2_10_0_4 0
x_2_10_0_5 0
x_2_10_1_0 0
x_2_10_1_1 0
x_2_10_1_2 0
x_2_10_1_3 0
x_2_10_1_4 0
x_2_10_1_5 0
x_3_4_0_0 9.9999999999995615e-01
x_3_4_0_1 0
x_3_4_0_2 0
x_3_4_0_3 1
x_3_4_0_4 0
x_3_4_0_5 0
x_3_4_1_0 0
x_3_4_1_1 0
x_3_4_1_2 0
x_3_4_1_3 0
x_3_4_1_4 0
x_3_4_1_5 0
x_3_5_0_0 0
x_3_5_0_1 0
x_3_5_0_2 0
x_3_5_0_3 1.0000000000000007e+00
x_3_5_0_4 0
x_3_5_0_5 0
x_3_5_1_0 0
x_3_5_1_1 0
x_3_5_1_2 0
x_3_5_1_3 0
x_3_5_1_4 0
x_3_5_1_5 0
x_3_6_0_0 9.9999999999995592e-01
x_3_6_0_1 0
x_3_6_0_2 -9.5201624361607173e-15
x_3_6_0_3 0
x_3_6_0_4 0
x_3_6_0_5 0
x_3_6_1_0 0
x_3_6_1_1 0
x_3_6_1_2 0
x_3_6_1_3 0
x_3_6_1_4 0
x_3_6_1_5 0
x_3_7_0_0 0
x_3_7_0_1 0
x_3_7_0_2 0
x_3_7_0_3 0
x_3_7_0_4 0
x_3_7_0_5 0
x_3_7_1_0 0
x_3_7_1_1 0
x_3_7_1_2 0
x_3_7_1_3 0
x_3_7_1_4 0
x_3_7_1_5 0
x_3_8_0_0 0
x_3_8_0_1 0
x_3_8_0_2 0
x_3_8_0_3 0
x_3_8_0_4 0
x_3_8_0_5 0
x_3_8_1_0 0
x_3_8_1_1 0
x_3_8_1_2 0
x_3_8_1_3 0
x_3_8_1_4 0
x_3_8_1_5 0
x_3_9_0_0 0
x_3_9_0_1 0
x_3_9_0_2 -9.5201624361607173e-15
x_3_9_0_3 0
x_3_9_0_4 0
x_3_9_0_5 0
x_3_9_1_0 0
x_3_9_1_1 -4.3368086899420177e-19
x_3_9_1_2 0
x_3_9_1_3 0
x_3_9_1_4 0
x_3_9_1_5 0
x_3_10_0_0 0
x_3_10_0_1 0
x_3_10_0_2 0
x_3_10_0_3 0
x_3_10_0_4 0
x_3_10_0_5 0
x_3_10_1_0 0
x_3_10_1_1 0
x_3_10_1_2 0
x_3_10_1_3 0
x_3_10_1_4 0
x_3_10_1_5 0
x_4_5_0_0 -8.0187592677027908e-16
x_4_5_0_1 0
x_4_5_0_2 0
x_4_5_0_3 0
x_4_5_0_4 0
x_4_5_0_5 0
x_4_5_1_0 0
x_4_5_1_1 1.7347234759768071e-18
x_4_5_1_2 0
x_4_5_1_3 0
x_4_5_1_4 0
x_4_5_1_5 0
x_4_6_0_0 0
x_4_6_0_1 0
x_4_6_0_2 0
x_4_6_0_3 0
x_4_6_0_4 0
x_4_6_0_5 0
x_4_6_1_0 0
x_4_6_1_1 0
x_4_6_1_2 0
x_4_6_1_3 0
x_4_6_1_4 0
x_4_6_1_5 0
x_4_7_0_0 0
x_4_7_0_1 0
x_4_7_0_2 0
x_4_7_0_3 0
x_4_7_0_4 0
x_4_7_0_5 0
x_4_7_1_0 0
x_4_7_1_1 0
x_4_7_1_2 0
x_4_7_1_3 0
x_4_7_1_4 0
x_4_7_1_5 0
x_4_8_0_0 0
x_4_8_0_1 0
x_4_8_0_2 0
x_4_8_0_3 0
x_4_8_0_4 0
x_4_8_0_5 0
x_4_8_1_0 0
x_4_8_1_1 0
x_4_8_1_2 0
x_4_8_1_3 0
x_4_8_1_4 0
x_4_8_1_5 0
x_4_9_0_0 0.999999999999896
x_4_9_0_1 -8.7200212328664151e-15
x_4_9_0_2 0
x_4_9_0_3 2.4980018054066022e-16
x_4_9_0_4 0
x_4_9_0_5 0
x_4_9_1_0 0
x_4_9_1_1 4.3368086899420177e-19
x_4_9_1_2 0
x_4_9_1_3 0
x_4_9_1_4 0
x_4_9_1_5 0
x_4_10_0_0 0
x_4_10_0_1 -8.7152507433074788e-15
x_4_10_0_2 0
x_4_10_0_3 0
x_4_10_0_4 0
x_4_10_0_5 0
x_4_10_1_0 0
x_4_10_1_1 0
x_4_10_1_2 0
x_4_10_1_3 0
x_4_10_1_4 0
x_4_10_1_5 0
x_5_6_0_0 -9.5205961170297115e-15
x_5_6_0_1 0
x_5_6_0_2 9.9999999999995592e-01
x_5_6_0_3 0
x_5_6_0_4 0
x_5_6_0_5 0
x_5_6_1_0 0
x_5_6_1_1 0
x_5_6_1_2 0
x_5_6_1_3 4.2368886177257536e-14
x_5_6_1_4 9.9999999999999722e-01
x_5_6_1_5 0
x_5_7_0_0 0
x_5_7_0_1 8.7195875519974209e-15
x_5_7_0_2 0
x_5_7_0_3 1.0000000000000007e+00
x_5_7_0_4 0
x_5_7_0_5 0
x_5_7_1_0 0
x_5_7_1_1 0
x_5_7_1_2 0
x_5_7_1_3 -4.2368886177257536e-14
x_5_7_1_4 0
x_5_7_1_5 0
x_5_8_0_0 0
x_5_8_0_1 0
x_5_8_0_2 0
x_5_8_0_3 0
x_5_8_0_4 0
x_5_8_0_5 0
x_5_8_1_0 0
x_5_8_1_1 0
x_5_8_1_2 0
x_5_8_1_3 0
x_5_8_1_4 0
x_5_8_1_5 0
x_5_9_0_0 0
x_5_9_0_1 0
x_5_9_0_2 0
x_5_9_0_3 0
x_5_9_0_4 8.3696938268928989e-14
x_5_9_0_5 0
x_5_9_1_0 0
x_5_9_1_1 0
x_5_9_1_2 0
x_5_9_1_3 0
x_5_9_1_4 0
x_5_9_1_5 0
x_5_10_0_0 0
x_5_10_0_1 -8.7195875519974209e-15
x_5_10_0_2 0
x_5_10_0_3 0
x_5_10_0_4 0
x_5_10_0_5 0
x_5_10_1_0 0
x_5_10_1_1 0
x_5_10_1_2 0
x_5_10_1_3 0
x_5_10_1_4 0
x_5_10_1_5 0
x_6_7_0_0 0
x_6_7_0_1 0
x_6_7_0_2 0
x_6_7_0_3 0
x_6_7_0_4 0
x_6_7_0_5 1.5766905281949778e-13
x_6_7_1_0 0
x_6_7_1_1 0
x_6_7_1_2 0
x_6_7_1_3 -4.2368886177257536e-14
x_6_7_1_4 0
x_6_7_1_5 0
x_6_8_0_0 0
x_6_8_0_1 0
x_6_8_0_2 0
x_6_8_0_3 0
x_6_8_0_4 0
x_6_8_0_5 0
x_6_8_1_0 0
x_6_8_1_1 0
x_6_8_1_2 0
x_6_8_1_3 0
x_6_8_1_4 0
x_6_8_1_5 0
x_6_9_0_0 0
x_6_9_0_1 0
x_6_9_0_2 0
x_6_9_0_3 0
x_6_9_0_4 0
x_6_9_0_5 0
x_6_9_1_0 0
x_6_9_1_1 0
x_6_9_1_2 0
x_6_9_1_3 0
x_6_9_1_4 0
x_6_9_1_5 0
x_6_10_0_0 0
x_6_10_0_1 0
x_6_10_0_2 0
x_6_10_0_3 0
x_6_10_0_4 0
x_6_10_0_5 0
x_6_10_1_0 0
x_6_10_1_1 0
x_6_10_1_2 0
x_6_10_1_3 0
x_6_10_1_4 0
x_6_10_1_5 0
x_7_8_0_0 0
x_7_8_0_1 9.9999999999999634e-01
x_7_8_0_2 0
x_7_8_0_3 1.0000000000000002e+00
x_7_8_0_4 0
x_7_8_0_5 -3.8441472227646045e-15
x_7_8_1_0 0
x_7_8_1_1 0
x_7_8_1_2 0
x_7_8_1_3 -1.4453716001838757e-13
x_7_8_1_4 0
x_7_8_1_5 0
x_7_9_0_0 0
x_7_9_0_1 0
x_7_9_0_2 0
x_7_9_0_3 0
x_7_9_0_4 0
x_7_9_0_5 0
x_7_9_1_0 0
x_7_9_1_1 0
x_7_9_1_2 0
x_7_9_1_3 0
x_7_9_1_4 0
x_7_9_1_5 0
x_7_10_0_0 0
x_7_10_0_1 0
x_7_10_0_2 0
x_7_10_0_3 0
x_7_10_0_4 0
x_7_10_0_5 0
x_7_10_1_0 0
x_7_10_1_1 0
x_7_10_1_2 0
x_7_10_1_3 0
x_7_10_1_4 0
x_7_10_1_5 0
x_8_9_0_0 0
x_8_9_0_1 0
x_8_9_0_2 0
x_8_9_0_3 0
x_8_9_0_4 0
x_8_9_0_5 0
x_8_9_1_0 0
x_8_9_1_1 0
x_8_9_1_2 0
x_8_9_1_3 0
x_8_9_1_4 0
x_8_9_1_5 0
x_8_10_0_0 0
x_8_10_0_1 0
x_8_10_0_2 0
x_8_10_0_3 0
x_8_10_0_4 0
x_8_10_0_5 0
x_8_10_1_0 0
x_8_10_1_1 0
x_8_10_1_2 0
x_8_10_1_3 0
x_8_10_1_4 0
x_8_10_1_5 0
x_9_10_0_0 0.999999999999896
x_9_10_0_1 -8.7200212328664151e-15
x_9_10_0_2 -9.5201624361607173e-15
x_9_10_0_3 0
x_9_10_0_4 8.3696938268928989e-14
x_9_10_0_5 1.5766905281949778e-13
x_9_10_1_0 0
x_9_10_1_1 0
x_9_10_1_2 0
x_9_10_1_3 9.9999999999984135e-01
x_9_10_1_4 0
x_9_10_1_5 1.1199027816211071e-13
